
%FILE DATA:	Soccer Computational Problem for MiniZinc Models	%
%AUTHOR:	Jack Wall	%
%CONTACT:  	116397063@umail.ucc.ie			%
%LAST UPDATE:	03/03/2020, 16:38:38						%
%DESCRIPTION: 	82 games played with 28 games left				%


n=11; %number of teams

%Games to play
games=[|10,5|3,10|8,11|8,3|11,10|1,2|7,2|10,8|4,1|8,6|9,6|11,3|9,5|6,5|2,1|10,4|3,7|7,10|7,6|1,8|3,5|6,4|6,10|10,11|9,10|1,5|7,11|10,1|];

%Initial points
iPoints=[13,19,22,20,26,14,24,25,33,15,13];

%POSITION CONSTRAINTS
% [|teamID, operator, position|...]
% operators index:
%  1 for =  operator
%  2 for >  operator
%  3 for >= operator
%  4 for <  operator
%  5 for <= operator
positionConstraints=[|9,5,1|8,5,2|];